
Gurobi 9.5.2 (win64) logging started Fri Oct  6 12:30:35 2023

Set parameter LogFile to value "./ccga_results/2023-10-06 12-30-32-533/MSP_TimeStampConvert_gurobi_log.txt"
Set parameter TimeLimit to value 7200

Gurobi 9.5.2 (win64) logging started Fri Oct  6 12:30:35 2023

Set parameter LogFile to value "./ccga_results/2023-10-06 12-30-32-533/MSP_TimeStampConvert_gurobi_log.txt"
Set parameter TimeLimit to value 7200
Gurobi Optimizer version 9.5.2 build v9.5.2rc0 (win64)
Thread count: 10 physical cores, 20 logical processors, using up to 20 threads
Optimize a model with 584 rows, 441 columns and 1438 nonzeros
Model fingerprint: 0xa7155132
Variable types: 9 continuous, 432 integer (432 binary)
Coefficient statistics:
  Matrix range     [1e+00, 1e+00]
  Objective range  [1e+00, 1e+00]
  Bounds range     [1e+03, 1e+03]
  RHS range        [1e+00, 1e+00]
Found heuristic solution: objective 8000.0000000

Explored 0 nodes (0 simplex iterations) in 0.00 seconds (0.00 work units)
Thread count was 1 (of 20 available processors)

Solution count 1: 8000 

Optimal solution found (tolerance 1.00e-02)
Best objective 8.000000000000e+03, best bound 8.000000000000e+03, gap 0.0000%

User-callback calls 21, time in user-callback 0.00 sec
Set parameter TimeLimit to value 7197
Gurobi Optimizer version 9.5.2 build v9.5.2rc0 (win64)
Thread count: 10 physical cores, 20 logical processors, using up to 20 threads
Optimize a model with 1837 rows, 801 columns and 5655 nonzeros
Model fingerprint: 0x3ef5aab0
Variable types: 353 continuous, 448 integer (448 binary)
Coefficient statistics:
  Matrix range     [9e-01, 8e+02]
  Objective range  [1e+00, 1e+00]
  Bounds range     [1e+03, 1e+03]
  RHS range        [1e+00, 6e+06]

MIP start from previous solve did not produce a new incumbent solution

Presolve removed 207 rows and 77 columns
Presolve time: 0.04s
Presolved: 1630 rows, 724 columns, 5316 nonzeros
Variable types: 328 continuous, 396 integer (396 binary)
Found heuristic solution: objective 2971.1111111
Found heuristic solution: objective 3376.1111111

Root relaxation: objective 8.000000e+03, 300 iterations, 0.01 seconds (0.00 work units)

    Nodes    |    Current Node    |     Objective Bounds      |     Work
 Expl Unexpl |  Obj  Depth IntInf | Incumbent    BestBd   Gap | It/Node Time

H    0     0                    8000.0000000 8000.00000  0.00%     -    0s
     0     0 8000.00000    0    3 8000.00000 8000.00000  0.00%     -    0s

Explored 1 nodes (475 simplex iterations) in 0.11 seconds (0.04 work units)
Thread count was 20 (of 20 available processors)

Solution count 3: 8000 3376.11 2971.11 

Optimal solution found (tolerance 1.00e-02)
Best objective 8.000000000000e+03, best bound 8.000000000000e+03, gap 0.0000%

User-callback calls 465, time in user-callback 0.00 sec
Set parameter TimeLimit to value 7195
Gurobi Optimizer version 9.5.2 build v9.5.2rc0 (win64)
Thread count: 10 physical cores, 20 logical processors, using up to 20 threads
Optimize a model with 3090 rows, 1161 columns and 9872 nonzeros
Model fingerprint: 0xe65b5570
Variable types: 697 continuous, 464 integer (464 binary)
Coefficient statistics:
  Matrix range     [9e-01, 8e+02]
  Objective range  [1e+00, 1e+00]
  Bounds range     [1e+03, 1e+03]
  RHS range        [1e+00, 6e+06]

MIP start from previous solve did not produce a new incumbent solution

Presolve removed 334 rows and 117 columns
Presolve time: 0.09s
Presolved: 2756 rows, 1044 columns, 9286 nonzeros
Variable types: 648 continuous, 396 integer (396 binary)

Root relaxation: objective 7.961304e+03, 1690 iterations, 0.04 seconds (0.04 work units)

    Nodes    |    Current Node    |     Objective Bounds      |     Work
 Expl Unexpl |  Obj  Depth IntInf | Incumbent    BestBd   Gap | It/Node Time

     0     0 7961.30435    0   34          - 7961.30435      -     -    0s
H    0     0                    7414.1666667 7961.30435  7.38%     -    0s
H    0     0                    7470.0000000 7961.30435  6.58%     -    0s
     0     0 7961.30435    0   80 7470.00000 7961.30435  6.58%     -    0s
H    0     0                    7646.1111111 7961.30435  4.12%     -    0s
     0     0 7961.30435    0   77 7646.11111 7961.30435  4.12%     -    0s
     0     0 7961.30435    0   33 7646.11111 7961.30435  4.12%     -    1s
     0     0 7961.30435    0   44 7646.11111 7961.30435  4.12%     -    1s
     0     0 7959.63686    0   39 7646.11111 7959.63686  4.10%     -    1s
     0     0 7924.68291    0   39 7646.11111 7924.68291  3.64%     -    2s
     0     0 7913.71686    0   41 7646.11111 7913.71686  3.50%     -    2s
H    0     0                    7741.1111111 7909.22500  2.17%     -    2s
     0     0 7909.22500    0   33 7741.11111 7909.22500  2.17%     -    2s
     0     0 7868.30918    0   14 7741.11111 7868.30918  1.64%     -    2s
     0     0 7868.30918    0   11 7741.11111 7868.30918  1.64%     -    2s
     0     0 7868.30918    0   28 7741.11111 7868.30918  1.64%     -    2s
     0     0 7868.30918    0   29 7741.11111 7868.30918  1.64%     -    2s
     0     0 7868.30918    0   28 7741.11111 7868.30918  1.64%     -    3s
     0     0 7868.30918    0   31 7741.11111 7868.30918  1.64%     -    3s
     0     0 7868.30918    0   20 7741.11111 7868.30918  1.64%     -    3s
     0     0 7868.30918    0   11 7741.11111 7868.30918  1.64%     -    3s
H    0     0                    7801.1111111 7868.30918  0.86%     -    3s

Cutting planes:
  Gomory: 25
  MIR: 16
  Flow cover: 60
  Relax-and-lift: 3

Explored 1 nodes (5615 simplex iterations) in 3.62 seconds (0.57 work units)
Thread count was 20 (of 20 available processors)

Solution count 5: 7801.11 7741.11 7646.11 ... 7414.17

Optimal solution found (tolerance 1.00e-02)
Best objective 7.801111111111e+03, best bound 7.868309178744e+03, gap 0.8614%

User-callback calls 867, time in user-callback 0.00 sec
Set parameter TimeLimit to value 7189
Gurobi Optimizer version 9.5.2 build v9.5.2rc0 (win64)
Thread count: 10 physical cores, 20 logical processors, using up to 20 threads
Optimize a model with 4343 rows, 1521 columns and 14089 nonzeros
Model fingerprint: 0xef9e2f42
Variable types: 1041 continuous, 480 integer (480 binary)
Coefficient statistics:
  Matrix range     [9e-01, 8e+02]
  Objective range  [1e+00, 1e+00]
  Bounds range     [1e+03, 1e+03]
  RHS range        [1e+00, 6e+06]

MIP start from previous solve did not produce a new incumbent solution

Presolve removed 461 rows and 157 columns
Presolve time: 0.16s
Presolved: 3882 rows, 1364 columns, 13251 nonzeros
Variable types: 968 continuous, 396 integer (396 binary)
Found heuristic solution: objective 1485.0000000

Root relaxation: objective 7.726125e+03, 2654 iterations, 0.08 seconds (0.09 work units)

    Nodes    |    Current Node    |     Objective Bounds      |     Work
 Expl Unexpl |  Obj  Depth IntInf | Incumbent    BestBd   Gap | It/Node Time

     0     0 7726.12499    0   44 1485.00000 7726.12499   420%     -    0s
H    0     0                    7266.1111111 7726.12499  6.33%     -    0s
H    0     0                    7431.1111111 7726.12499  3.97%     -    1s
     0     0 7726.12499    0   74 7431.11111 7726.12499  3.97%     -    1s
     0     0 7726.12499    0   68 7431.11111 7726.12499  3.97%     -    1s
H    0     0                    7506.1111111 7726.12499  2.93%     -    1s
     0     0 7726.12499    0   58 7506.11111 7726.12499  2.93%     -    2s
     0     0 7726.12499    0   70 7506.11111 7726.12499  2.93%     -    2s
     0     0 7726.12499    0   45 7506.11111 7726.12499  2.93%     -    3s
     0     0 7726.12499    0   61 7506.11111 7726.12499  2.93%     -    3s
     0     0 7723.40714    0   62 7506.11111 7723.40714  2.89%     -    4s
     0     0 7722.11772    0   70 7506.11111 7722.11772  2.88%     -    4s
     0     0 7718.86772    0   68 7506.11111 7718.86772  2.83%     -    4s
     0     0 7669.01058    0   80 7506.11111 7669.01058  2.17%     -    4s
     0     0 7669.01058    0   80 7506.11111 7669.01058  2.17%     -    4s
     0     0 7662.44143    0   85 7506.11111 7662.44143  2.08%     -    5s
     0     0 7662.44143    0   72 7506.11111 7662.44143  2.08%     -    5s
     0     0 7662.44143    0   78 7506.11111 7662.44143  2.08%     -    5s
H    0     0                    7521.1111111 7662.44143  1.88%     -    5s
     0     0 7662.44143    0   56 7521.11111 7662.44143  1.88%     -    5s
     0     0 7662.44143    0   49 7521.11111 7662.44143  1.88%     -    6s
     0     0 7662.44143    0   51 7521.11111 7662.44143  1.88%     -    6s
     0     0 7662.44143    0   43 7521.11111 7662.44143  1.88%     -    6s
     0     0 7662.44143    0   43 7521.11111 7662.44143  1.88%     -    6s
     0     0 7662.44143    0   43 7521.11111 7662.44143  1.88%     -    7s
     0     0 7662.44143    0   41 7521.11111 7662.44143  1.88%     -    7s
     0     2 7662.44143    0   38 7521.11111 7662.44143  1.88%     -    7s
    45    56 7662.44143    6   49 7521.11111 7662.44143  1.88%  50.7   10s
H   84    86                    7531.1111111 7662.44143  1.74%  42.7   10s
   314   293 7593.79684   24   33 7531.11111 7662.44143  1.74%  28.1   17s
   577   559 7662.44143    5   64 7531.11111 7662.44143  1.74%  23.9   20s
   950   770 7661.71297    9   36 7531.11111 7662.44143  1.74%  24.7   28s
H  956   706                    7543.6111111 7662.44143  1.58%  24.7   28s
   961   846 7662.44143   10   44 7543.61111 7662.44143  1.58%  24.6   30s
  1505  1249 7568.09942   54   14 7543.61111 7662.44143  1.58%  24.1   35s
H 1741   979                    7571.1111111 7662.44143  1.21%  24.3   38s
  1745   964 7593.79684   25   52 7571.11111 7662.44143  1.21%  24.2   40s
  1757   972 7661.14386   14   41 7571.11111 7661.14386  1.19%  24.1   45s
H 1761   925                    7601.1111111 7661.14386  0.79%  24.0   47s

Cutting planes:
  Gomory: 28
  Cover: 1
  Projected implied bound: 16
  MIR: 79
  Flow cover: 146
  Relax-and-lift: 4

Explored 1761 nodes (59304 simplex iterations) in 47.97 seconds (5.30 work units)
Thread count was 20 (of 20 available processors)

Solution count 9: 7601.11 7571.11 7543.61 ... 1485

Optimal solution found (tolerance 1.00e-02)
Best objective 7.601111111111e+03, best bound 7.661143858533e+03, gap 0.7898%

User-callback calls 6861, time in user-callback 0.01 sec
Set parameter TimeLimit to value 7140
Gurobi Optimizer version 9.5.2 build v9.5.2rc0 (win64)
Thread count: 10 physical cores, 20 logical processors, using up to 20 threads
Optimize a model with 5596 rows, 1881 columns and 18306 nonzeros
Model fingerprint: 0xd9fbade4
Variable types: 1385 continuous, 496 integer (496 binary)
Coefficient statistics:
  Matrix range     [9e-01, 8e+02]
  Objective range  [1e+00, 1e+00]
  Bounds range     [1e+03, 1e+03]
  RHS range        [1e+00, 6e+06]

MIP start from previous solve produced solution with objective 6786.11 (0.08s)
Loaded MIP start from previous solve with objective 6786.11

Presolve removed 585 rows and 194 columns
Presolve time: 0.20s
Presolved: 5011 rows, 1687 columns, 16723 nonzeros
Variable types: 1288 continuous, 399 integer (396 binary)

Root relaxation: objective 7.821130e+03, 3875 iterations, 0.14 seconds (0.14 work units)

    Nodes    |    Current Node    |     Objective Bounds      |     Work
 Expl Unexpl |  Obj  Depth IntInf | Incumbent    BestBd   Gap | It/Node Time

     0     0 7821.13043    0   73 6786.11111 7821.13043  15.3%     -    0s
     0     0 7774.66081    0  102 6786.11111 7774.66081  14.6%     -    2s
H    0     0                    7218.6111111 7774.66081  7.70%     -    2s
H    0     0                    7421.1111111 7722.97764  4.07%     -    3s
     0     0 7722.97764    0  100 7421.11111 7722.97764  4.07%     -    3s
     0     0 7722.97764    0   93 7421.11111 7722.97764  4.07%     -    3s
     0     0 7722.97764    0  108 7421.11111 7722.97764  4.07%     -    4s
     0     0 7722.97764    0  105 7421.11111 7722.97764  4.07%     -    5s
     0     0 7710.76943    0   62 7421.11111 7710.76943  3.90%     -    6s
     0     0 7710.76943    0   62 7421.11111 7710.76943  3.90%     -    6s
     0     0 7673.19540    0  108 7421.11111 7673.19540  3.40%     -    7s
     0     0 7673.19540    0  108 7421.11111 7673.19540  3.40%     -    7s
     0     0 7663.66102    0   82 7421.11111 7663.66102  3.27%     -    8s
     0     0 7660.31968    0  100 7421.11111 7660.31968  3.22%     -    8s
     0     0 7660.31968    0   93 7421.11111 7660.31968  3.22%     -    8s
     0     0 7660.31968    0   66 7421.11111 7660.31968  3.22%     -    9s
     0     0 7660.31968    0   83 7421.11111 7660.31968  3.22%     -    9s
     0     0 7660.31968    0   75 7421.11111 7660.31968  3.22%     -   10s
     0     0 7660.31968    0   86 7421.11111 7660.31968  3.22%     -   10s
     0     0 7660.31968    0   67 7421.11111 7660.31968  3.22%     -   11s
     0     0 7660.31968    0   62 7421.11111 7660.31968  3.22%     -   12s
H    0     0                    7431.1111111 7660.31968  3.08%     -   12s
     0     2 7660.31968    0   61 7431.11111 7660.31968  3.08%     -   12s
    45    56 7637.42233    6   39 7431.11111 7660.31968  3.08%  85.7   16s
H   74    93                    7471.1111111 7660.31968  2.53%  70.0   17s
H   86    93                    7556.1111111 7660.31968  1.38%  63.4   17s
   190   219 7634.98126   16   51 7556.11111 7660.31968  1.38%  46.1   20s
   465   426 7588.97603   32   32 7556.11111 7660.31968  1.38%  40.7   32s
H  467   426                    7621.1111111 7660.31968  0.51%  40.5   32s

Cutting planes:
  Gomory: 15
  MIR: 55
  Flow cover: 114
  Relax-and-lift: 21

Explored 476 nodes (28775 simplex iterations) in 33.00 seconds (3.36 work units)
Thread count was 20 (of 20 available processors)

Solution count 7: 7621.11 7556.11 7471.11 ... 6786.11

Optimal solution found (tolerance 1.00e-02)
Best objective 7.621111111111e+03, best bound 7.660319676388e+03, gap 0.5145%

User-callback calls 3073, time in user-callback 0.00 sec
Set parameter TimeLimit to value 7105
Gurobi Optimizer version 9.5.2 build v9.5.2rc0 (win64)
Thread count: 10 physical cores, 20 logical processors, using up to 20 threads
Optimize a model with 6849 rows, 2241 columns and 22523 nonzeros
Model fingerprint: 0x8d91098f
Variable types: 1729 continuous, 512 integer (512 binary)
Coefficient statistics:
  Matrix range     [9e-01, 8e+02]
  Objective range  [1e+00, 1e+00]
  Bounds range     [1e+03, 1e+03]
  RHS range        [1e+00, 6e+06]

MIP start from previous solve produced solution with objective 7001.11 (0.10s)
Loaded MIP start from previous solve with objective 7001.11

Presolve removed 712 rows and 234 columns
Presolve time: 0.23s
Presolved: 6137 rows, 2007 columns, 20527 nonzeros
Variable types: 1608 continuous, 399 integer (396 binary)

Root relaxation: objective 7.818438e+03, 5042 iterations, 0.23 seconds (0.30 work units)

    Nodes    |    Current Node    |     Objective Bounds      |     Work
 Expl Unexpl |  Obj  Depth IntInf | Incumbent    BestBd   Gap | It/Node Time

     0     0 7818.43779    0   74 7001.11111 7818.43779  11.7%     -    1s
     0     0 7802.76297    0  110 7001.11111 7802.76297  11.5%     -    3s
     0     0 7795.24467    0  118 7001.11111 7795.24467  11.3%     -    4s
     0     0 7795.24467    0  118 7001.11111 7795.24467  11.3%     -    4s
     0     0 7739.57339    0  134 7001.11111 7739.57339  10.5%     -    6s
     0     0 7739.57339    0  115 7001.11111 7739.57339  10.5%     -    6s
     0     0 7722.97764    0  170 7001.11111 7722.97764  10.3%     -    8s
H    0     0                    7166.1111111 7722.97764  7.77%     -    8s
     0     0 7722.97764    0  121 7166.11111 7722.97764  7.77%     -    8s
H    0     0                    7291.1111111 7698.20226  5.58%     -   10s
     0     0 7698.20226    0  141 7291.11111 7698.20226  5.58%     -   10s
     0     0 7698.08955    0  146 7291.11111 7698.08955  5.58%     -   10s
     0     0 7697.74284    0  126 7291.11111 7697.74284  5.58%     -   10s
     0     0 7697.74284    0  126 7291.11111 7697.74284  5.58%     -   10s
     0     0 7665.26292    0  147 7291.11111 7665.26292  5.13%     -   11s
     0     0 7662.45175    0  137 7291.11111 7662.45175  5.09%     -   11s
     0     0 7662.45175    0  137 7291.11111 7662.45175  5.09%     -   12s
     0     0 7662.38504    0  130 7291.11111 7662.38504  5.09%     -   12s
     0     0 7662.38504    0  132 7291.11111 7662.38504  5.09%     -   13s
     0     0 7659.82251    0  118 7291.11111 7659.82251  5.06%     -   13s
     0     0 7659.82251    0  118 7291.11111 7659.82251  5.06%     -   13s
     0     0 7659.82251    0  167 7291.11111 7659.82251  5.06%     -   14s
     0     0 7659.82251    0  145 7291.11111 7659.82251  5.06%     -   14s
     0     0 7659.82251    0  102 7291.11111 7659.82251  5.06%     -   15s
     0     0 7659.82251    0  102 7291.11111 7659.82251  5.06%     -   15s
     0     0 7659.82251    0  139 7291.11111 7659.82251  5.06%     -   16s
     0     0 7659.82251    0  139 7291.11111 7659.82251  5.06%     -   17s
     0     2 7659.82251    0  109 7291.11111 7659.82251  5.06%     -   17s
H   35    46                    7346.1111111 7659.82251  4.27%   116   20s
H  127   124                    7422.2222222 7659.82251  3.20%   141   22s
   200   195 7576.54777   23   32 7422.22222 7659.82251  3.20%   123   25s
H  226   203                    7431.1111111 7659.82251  3.08%   120   25s
H  273   256                    7471.1111111 7659.82251  2.53%   117   28s
   304   304 7553.41935   31   25 7471.11111 7659.82251  2.53%   111   30s
H  417   375                    7551.1111111 7659.82251  1.44%  94.1   33s
   468   386 7648.58238    6   75 7551.11111 7659.82251  1.44%  90.5   38s
   513   434 7648.49069   10   70 7551.11111 7659.82251  1.44%  87.7   40s
   770   571 7593.69232   39   33 7551.11111 7659.82251  1.44%  79.3   45s
   979   734 7611.02776   17   60 7551.11111 7659.82251  1.44%  76.1   50s
  1235   909 7656.78750   11  104 7551.11111 7659.82251  1.44%  74.2   55s
  1432  1007 7640.60899   35   61 7551.11111 7659.82251  1.44%  72.9   74s
  1443  1014 7636.84356   36   52 7551.11111 7659.82251  1.44%  72.8  103s
  1456  1061 7636.84356   37   50 7551.11111 7659.82251  1.44%  72.8  105s
H 1531   974                    7566.1111111 7659.82251  1.24%  71.7  107s
  1635  1043 7608.16210   24  139 7566.11111 7659.82251  1.24%  70.0  119s
  1637  1044 7654.37203   10   72 7566.11111 7659.82251  1.24%  69.9  122s
  1638  1045 7654.32905   11   77 7566.11111 7659.82251  1.24%  69.8  125s
  1643  1048 7641.59593   22   97 7566.11111 7659.82251  1.24%  69.6  131s
  1646  1050 7636.38544   19   88 7566.11111 7659.82251  1.24%  69.5  136s
  1651  1054 7648.23140    8  123 7566.11111 7659.59635  1.24%  69.3  140s
  1655  1056 7593.94138   38  130 7566.11111 7657.85308  1.21%  69.1  146s
  1659  1059 7598.62500   31  113 7566.11111 7656.16165  1.19%  68.9  150s
  1662  1061 7626.87259   17  171 7566.11111 7654.32704  1.17%  68.8  155s
  1665  1063 7600.23629   15  170 7566.11111 7653.89661  1.16%  68.7  160s
  1674  1069 7597.90302   41  142 7566.11111 7653.76877  1.16%  68.3  165s
  1677  1071 7653.58901    9  141 7566.11111 7653.58901  1.16%  68.2  171s
  1680  1073 7653.58901   14  189 7566.11111 7653.58901  1.16%  68.1  175s
  1683  1075 7579.67017   32  167 7566.11111 7653.58901  1.16%  68.0  180s
  1690  1081 7615.50109    8   66 7566.11111 7653.58901  1.16%  79.4  186s
  1693  1083 7580.69209   25  174 7566.11111 7653.58901  1.16%  79.3  190s
  1705  1091 7614.84152   20  129 7566.11111 7653.58901  1.16%  78.7  196s
  1708  1093 7612.23983   16  114 7566.11111 7653.58901  1.16%  78.6  201s
  1712  1096 7570.60327   31  147 7566.11111 7653.50631  1.16%  78.4  205s
  1715  1098 7647.94625    9  113 7566.11111 7653.50631  1.16%  78.3  210s
  1719  1101 7653.50631   13  126 7566.11111 7653.50631  1.16%  78.1  215s
  1722  1103 7635.14236   22  130 7566.11111 7653.50631  1.16%  77.9  220s
  1729  1108 7652.56156   10   75 7566.11111 7653.50631  1.16%  86.6  226s
  1732  1110 7648.49069   12  171 7566.11111 7653.50631  1.16%  86.4  230s
  1741  1116 7575.30811   30  101 7566.11111 7653.50631  1.16%  86.0  236s
  1746  1120 7636.38544   19  122 7566.11111 7651.27106  1.13%  85.7  240s
  1750  1122 7578.64511   24  164 7566.11111 7650.45439  1.11%  85.5  246s
  1753  1124 7650.45144   12  179 7566.11111 7650.45144  1.11%  85.4  251s
  1756  1126 7645.59539   12   95 7566.11111 7649.85850  1.11%  85.2  256s
  1760  1129 7570.80300   37  150 7566.11111 7649.84458  1.11%  85.0  260s
  1764  1132 7610.10163   22  108 7566.11111 7649.84458  1.11%  84.8  265s
  1768  1134 7649.84458   11  132 7566.11111 7649.84458  1.11%  84.6  270s
  1773  1139 7571.88982   40  132 7566.11111 7649.84458  1.11%  92.8  276s
  1777  1142 7649.84458    9  145 7566.11111 7649.84458  1.11%  92.6  280s
  1782  1145 7628.86638   14   97 7566.11111 7649.84458  1.11%  92.4  285s
  1788  1149 7649.84458   11   81 7566.11111 7649.84458  1.11%  92.1  291s
  1791  1151 7615.78106   23  141 7566.11111 7649.84458  1.11%  91.9  296s
  1794  1153 7611.56569   14  123 7566.11111 7649.73331  1.11%  91.8  301s
  1797  1155 7620.30057   13  159 7566.11111 7649.73331  1.11%  91.6  305s
  1800  1157 7593.69232   39  114 7566.11111 7649.73331  1.11%  91.4  310s
  1807  1163 7597.90302   39   53 7566.11111 7649.73331  1.11%   100  316s
  1809  1165 7616.81087    9  169 7566.11111 7649.73331  1.11%  99.5  320s
  1818  1171 7617.93348   28  129 7566.11111 7649.73331  1.11%  99.0  326s
  1822  1173 7635.14236   22  157 7566.11111 7649.73331  1.11%  98.8  330s
  1826  1176 7649.15416   12  166 7566.11111 7649.15416  1.10%  98.5  337s
  1828  1177 7649.15416    9  111 7566.11111 7649.15416  1.10%  98.4  340s
  1833  1181 7615.02035   10  110 7566.11111 7649.14577  1.10%  98.2  346s
  1836  1183 7649.14577   11  124 7566.11111 7649.14577  1.10%  98.0  350s
  1842  1188 7581.90878   33   58 7566.11111 7649.14577  1.10%   106  356s
  1844  1190 7575.30811   30  144 7566.11111 7649.14577  1.10%   106  361s
  1852  1195 7579.67017   31  117 7566.11111 7649.14577  1.10%   106  367s
  1855  1197 7593.94138   38  106 7566.11111 7649.14577  1.10%   106  370s
  1858  1199 7624.48855   20   83 7566.11111 7649.14577  1.10%   105  375s
  1862  1202 7626.87259   17   85 7566.11111 7649.14577  1.10%   105  380s
  1865  1204 7600.23629   15  143 7566.11111 7649.14577  1.10%   105  385s
  1869  1206 7649.14577    9  105 7566.11111 7649.14577  1.10%   105  391s
  1873  1212 7643.45550   79   75 7566.11111 7649.14577  1.10%   114  395s
  1903  1250 7639.93920   83  112 7566.11111 7646.17217  1.06%   115  401s
  2012  1323 7639.86313   86   86 7566.11111 7646.17217  1.06%   117  405s
  2060  1355 7636.75532   87   74 7566.11111 7646.17217  1.06%   117  415s
  2268  1473 7631.39479   91   71 7566.11111 7646.17217  1.06%   118  420s
  2491  1546 7637.71817   96   71 7566.11111 7646.17217  1.06%   118  426s
  2663  1600 7605.52162   99   49 7566.11111 7646.17217  1.06%   118  430s
  2868  1650 7616.18292  104   40 7566.11111 7646.17217  1.06%   118  450s
  3103  1738     cutoff  108      7566.11111 7646.17217  1.06%   117  455s
  3418  1802 7641.67473   88  100 7566.11111 7646.17217  1.06%   115  461s
  3680  1852 7627.77668   92   60 7566.11111 7646.17217  1.06%   114  466s
  3862  1898 7632.09347   92   38 7566.11111 7646.17217  1.06%   114  470s
  4188  1876 7627.34342   93   71 7566.11111 7646.17217  1.06%   112  479s
  4217  1927 7596.85542   94   48 7566.11111 7646.17217  1.06%   112  482s
  4383  1927 7625.63746   92   48 7566.11111 7646.17217  1.06%   112  485s
  4706  1988 7597.54325   98   38 7566.11111 7646.17217  1.06%   111  491s
* 4810  1658             114    7586.1111111 7646.17217  0.79%   111  491s

Cutting planes:
  Gomory: 57
  Projected implied bound: 9
  MIR: 87
  Flow cover: 174
  Relax-and-lift: 11

Explored 4887 nodes (553517 simplex iterations) in 492.29 seconds (63.92 work units)
Thread count was 20 (of 20 available processors)

Solution count 10: 7586.11 7566.11 7551.11 ... 7001.11

Optimal solution found (tolerance 1.00e-02)
Best objective 7.586111111111e+03, best bound 7.646172169705e+03, gap 0.7917%

User-callback calls 36301, time in user-callback 0.04 sec
